n_res = 4;
rcap = [10, 15, 55, 46];
rtype = [1, 1, 2, 2];
n_tasks = 10;
modes = [ {1, 2, 3}, {4, 5, 6}, {7, 8, 9}, {10, 11, 12}, {13, 14, 15}, {16, 17, 18}, {19, 20, 21}, {22, 23, 24}, {25, 26, 27}, {28, 29, 30} ];
succ = [ {10}, {4, 5, 9}, {4, 5, 6}, {10}, {7}, {8, 10}, {8}, {}, {}, {} ];
n_opt = 30;
dur = [1, 1, 9, 1, 6, 6, 5, 6, 10, 6, 7, 8, 5, 5, 8, 3, 5, 7, 5, 6, 8, 2, 3, 7, 1, 2, 3, 1, 5, 10];
rreq = [|  0,  5,  4,  0,  0,  0,  0,  0,  0,  0,  2,  2,  7,  8,  6,  0,  0,  0,  0,  0,  0,  7,  0,  5,  4,  0,  0,  0,  5,  0
        |  4,  0,  0,  5,  3,  2, 10,  9,  6,  7,  0,  0,  0,  0,  0,  8,  7,  7,  8,  5,  3,  0,  7,  0,  0,  4,  3,  9,  0,  2
        |  5,  5,  4,  8,  8,  5,  7,  5,  4,  7,  5,  2,  5,  5,  3,  5,  5,  5,  7,  6,  5, 10,  7,  4,  7,  5,  4,  9,  8,  4
        |  7,  7,  7,  6,  3,  5,  7,  7,  5,  6,  4,  4,  6,  5,  3,  2,  2,  1,  3,  3,  3,  3,  3,  3,  8,  8,  7,  5,  2,  2 |];
